\ENCODING=ISO-8859-1
\Problem name: ./instances/chem.cor

Minimize
 OBJ: 2500 N1T1 + 3000 N2T1 + 2800 N3T1 + 23 QB1T1 + 25 QB2T1 - QS04T1 - QS07T1
      + 2600 N1T2 + 3100 N2T2 + 2900 N3T2 + 24 QB1T2 + 26 QB2T2 - 20 QS04T2A
      - 28.4 QS07T2A - 35.4 QS04T2B - 48.6 QS07T2B
Subject To
 CN1T0:   NN1T0  = 0
 CN2T0:   NN2T0  = 0
 CN3T0:   NN3T0  = 0
 MB1T0:   A1T0  = 0
 MB2T0:   A2T0  = 0
 MB3T0:   A3T0  = 0
 MB4T0:   A4T0  = 0
 MB5T0:   A5T0  = 0
 MB6T0:   A6T0  = 0
 MB7T0:   A7T0  = 0
 LS1T1:   - 80 NN1T1 + 4 Y11T1 + 4 Y41T1 <= 0
 LS2T1:   - 80 NN2T1 + 4 Y12T1 + 4 Y42T1 <= 0
 LS3T1:   - 80 NN3T1 + 4 Y23T1 + 4 Y33T1 <= 0
 CN1T1:   - NN1T0 + NN1T1 - N1T1  = 0
 CN2T1:   - NN2T0 + NN2T1 - N2T1  = 0
 CN3T1:   - NN3T0 + NN3T1 - N3T1  = 0
 MB1T1:   - A1T0 + A1T1 + B11T1 + B12T1 - QB1T1  = 0
 MB2T1:   - A2T0 + A2T1 + B11T1 + B12T1 + B33T1 - QB2T1  = 0
 MB3T1:   - A3T0 + A3T1 - B11T1 - B12T1 + B23T1  = 0
 MB4T1:   - A4T0 + A4T1 - B23T1 + QS4T1  = 0
 MB5T1:   - A5T0 + A5T1 + B33T1 - B23T1  = 0
 MB6T1:   - A6T0 + A6T1 - B33T1 + B41T1 + B42T1  = 0
 MB7T1:   - A7T0 + A7T1 - B41T1 - B42T1 + QS7T1  = 0
 IN1T1:   A1T1 <= 400
 IN2T1:   A2T1 <= 400
 IN3T1:   A3T1 <= 400
 IN4T1:   A4T1 <= 400
 IN5T1:   A5T1 <= 400
 IN6T1:   A6T1 <= 400
 IN7T1:   A7T1 <= 400
 RX11T1:  - 100 Y11T1 + B11T1 <= 0
 RX12T1:  - 200 Y12T1 + B12T1 <= 0
 RX33T1:  - 150 Y33T1 + B33T1 <= 0
 RX23T1:  - 150 Y23T1 + B23T1 <= 0
 RX41T1:  - 100 Y41T1 + B41T1 <= 0
 RX42T1:  - 200 Y42T1 + B42T1 <= 0
 BL1T1:   QB1T1 <= 200
 BL2T1:   QB2T1 <= 250
 SB4T1:   QS4T1 - QS04T1 - QSP4T1  = 0
 SB7T1:   QS7T1 - QS07T1 - QSP7T1  = 0
 DM4T1:   QS04T1 <= 150
 DM7T1:   QS07T1 <= 200
 DM4T1M:  2 QS04T1 >= 150
 DM7T1M:  2 QS07T1 >= 200
 LS1T2:   - 80 NN1T2 + 4 Y11T2 + 4 Y41T2 <= 0
 LS2T2:   - 80 NN2T2 + 4 Y12T2 + 4 Y42T2 <= 0
 LS3T2:   - 80 NN3T2 + 4 Y23T2 + 4 Y33T2 <= 0
 CN1T2:   - NN1T1 + NN1T2 - N1T2  = 0
 CN2T2:   - NN2T1 + NN2T2 - N2T2  = 0
 CN3T2:   - NN3T1 + NN3T2 - N3T2  = 0
 MB1T2:   - A1T1 + A1T2 + B11T2 + B12T2 - QB1T2  = 0
 MB2T2:   - A2T1 + A2T2 + B11T2 + B12T2 + B33T2 - QB2T2  = 0
 MB3T2:   - A3T1 + A3T2 - B11T2 - B12T2 + B23T2  = 0
 MB4T2:   - A4T1 + A4T2 - B23T2 + QS4T2  = 0
 MB5T2:   - A5T1 + A5T2 + B33T2 - B23T2  = 0
 MB6T2:   - A6T1 + A6T2 - B33T2 + B41T2 + B42T2  = 0
 MB7T2:   - A7T1 + A7T2 - B41T2 - B42T2 + QS7T2  = 0
 IN1T2:   A1T2 <= 400
 IN2T2:   A2T2 <= 400
 IN3T2:   A3T2 <= 400
 IN4T2:   A4T2 <= 400
 IN5T2:   A5T2 <= 400
 IN6T2:   A6T2 <= 400
 IN7T2:   A7T2 <= 400
 RX11T2:  - 100 Y11T2 + B11T2 <= 0
 RX12T2:  - 200 Y12T2 + B12T2 <= 0
 RX33T2:  - 150 Y33T2 + B33T2 <= 0
 RX23T2:  - 150 Y23T2 + B23T2 <= 0
 RX41T2:  - 100 Y41T2 + B41T2 <= 0
 RX42T2:  - 200 Y42T2 + B42T2 <= 0
 BL1T2:   QB1T2 <= 200
 BL2T2:   QB2T2 <= 250
 SB4T2A:  QS4T2 - QS04T2A - QSP4T2A  = 0
 SB7T2A:  QS7T2 - QS07T2A - QSP7T2A  = 0
 DM4T2A:  QS04T2A <= 100
 DM7T2A:  QS07T2A <= 150
 DM4T2AM: 2 QS04T2A >= 100
 DM7T2AM: 2 QS07T2A >= 150
 SB4T2B:  QS4T2 - QS04T2B - QSP4T2B  = 0
 SB7T2B:  QS7T2 - QS07T2B - QSP7T2B  = 0
 DM4T2B:  QS04T2B <= 150
 DM7T2B:  QS07T2B <= 200
 DM4T2BM: 2 QS04T2B >= 150
 DM7T2BM: 2 QS07T2B >= 200
End
